c ren 1 -> 1
c ren 2 -> 2
c ren 3 -> 3
c ren 4 -> 4
c ren 5 -> 5
c ren 6 -> 6
c ren 7 -> 7
c ren 8 -> 8
c ren 9 -> 9
c ren 10 -> 10
c ren 11 -> 11
c ren 12 -> 12
c ren 13 -> 13
c ren 14 -> 14
c ren 15 -> 15
c ren 16 -> 16
c ren 17 -> 17
c ren 18 -> 18
c ren 19 -> 19
c ren 20 -> 20
c ren 21 -> 21
c ren 22 -> 22
c ren 23 -> 23
c ren 24 -> 24
c ren 25 -> 25
c ren 26 -> 26
c ren 27 -> 27
c ren 28 -> 28
c ren 29 -> 29
c ren 30 -> 30
c ren 31 -> 31
c ren 32 -> 32
c ren 33 -> 33
c ren 34 -> 34
c ren 35 -> 35
c ren 36 -> 36
c ren 38 -> 37
c ren 41 -> 38
c ren 47 -> 39
c ren 50 -> 40
c ren 64 -> 41
c ren 72 -> 42
c ren 79 -> 43
c ren 86 -> 44
c ren 107 -> 45
c ren 114 -> 46
c ren 121 -> 47
c ren 123 -> 48
c ren 124 -> 49
c ren 130 -> 50
c ren 140 -> 51
c ren 149 -> 52
c ren 158 -> 53
c ren 167 -> 54
c ren 176 -> 55
c ren 182 -> 56
c ren 191 -> 57
c ren 200 -> 58
c ren 214 -> 59
c ren 225 -> 60
c ren 234 -> 61
c ren 242 -> 62
c ren 250 -> 63
c ren 258 -> 64
c ren 274 -> 65
c ren 282 -> 66
c ren 292 -> 67
c ren 300 -> 68
c ren 312 -> 69
c ren 313 -> 70
c ren 314 -> 71
c ren 315 -> 72
c ren 316 -> 73
c ren 317 -> 74
c ren 318 -> 75
c ren 319 -> 76
c ren 320 -> 77
c ren 321 -> 78
c ren 322 -> 79
c ren 323 -> 80
c ren 324 -> 81
c ren 325 -> 82
c ren 326 -> 83
c ren 327 -> 84
c ren 328 -> 85
c ren 329 -> 86
c ren 330 -> 87
c ren 331 -> 88
c ren 332 -> 89
c ren 333 -> 90
c ren 334 -> 91
c ren 335 -> 92
c ren 336 -> 93
c ren 337 -> 94
c ren 338 -> 95
c ren 339 -> 96
c ren 340 -> 97
c ren 341 -> 98
c ren 342 -> 99
c ren 343 -> 100
c ren 344 -> 101
c ren 345 -> 102
c ren 346 -> 103
c ren 347 -> 104
c ren 348 -> 105
c ren 349 -> 106
c ren 350 -> 107
c ren 393 -> 108
c ren 406 -> 109
c ren 419 -> 110
c ren 432 -> 111
c ren 448 -> 112
c ren 508 -> 113
c ren 519 -> 114
c ren 528 -> 115
c ren 536 -> 116
c ren 544 -> 117
c ren 552 -> 118
c ren 607 -> 119
c ren 608 -> 120
c ren 609 -> 121
c ren 610 -> 122
c ren 611 -> 123
c ren 612 -> 124
c ren 613 -> 125
c ren 614 -> 126
c ren 615 -> 127
c ren 616 -> 128
c ren 617 -> 129
c ren 618 -> 130
c ren 619 -> 131
c ren 620 -> 132
c ren 621 -> 133
c ren 622 -> 134
c ren 623 -> 135
c ren 624 -> 136
c ren 625 -> 137
c ren 626 -> 138
c ren 627 -> 139
c ren 628 -> 140
c ren 629 -> 141
c ren 630 -> 142
c ren 631 -> 143
c ren 632 -> 144
p cnf 144 692
a 1 2 3 4 5 6 7 8 9 10 11 12 13 14 15 16 17 18 19 20 21 22 23 24 25 26 27 28 29 30 31 32 33 34 35 36 80 81 82 83 84 85 86 87 88 89 90 91 92 93 94 95 96 97 98 99 100 101 102 103 104 105 106 107 0
d 69 80 81 82 83 84 85 86 87 88 89 90 91 92 0
d 70 80 81 82 83 84 85 86 87 88 89 90 91 92 0
d 71 80 81 82 83 84 85 86 87 88 89 90 91 92 0
d 72 80 81 82 83 84 85 86 87 88 89 90 91 92 0
d 73 80 81 82 83 84 85 86 87 88 89 90 91 92 0
d 74 80 81 82 83 84 85 86 87 88 89 90 91 92 0
d 75 80 81 82 83 84 85 86 87 88 89 90 91 92 0
d 76 93 94 95 96 97 98 99 100 101 102 103 104 105 106 107 0
d 77 93 94 95 96 97 98 99 100 101 102 103 104 105 106 107 0
d 78 93 94 95 96 97 98 99 100 101 102 103 104 105 106 107 0
d 79 93 94 95 96 97 98 99 100 101 102 103 104 105 106 107 0
e 37 38 39 40 41 42 43 44 45 46 47 48 49 50 51 52 53 54 55 56 57 58 59 60 61 62 63 64 65 66 67 68 108 109 110 111 112 113 114 115 116 117 118 119 120 121 122 123 124 125 126 127 128 129 130 131 132 133 134 135 136 137 138 139 140 141 142 143 144 0
-1 -37 0
2 -37 0
-4 -38 0
6 -38 0
-10 13 -41 -50 53 0
8 -10 -41 0
-12 -39 0
14 -39 0
-16 -40 0
18 -40 0
-22 25 -41 56 0
20 -22 -41 0
-26 29 -41 57 0
24 -26 -41 0
-30 33 -41 58 0
28 -30 -41 0
-32 -41 48 0
-37 -41 0
-38 -41 0
8 -10 11 44 0
-39 -41 0
-40 -41 0
20 -22 23 45 0
24 -26 27 46 0
28 -30 31 47 0
32 -34 49 0
-2 5 -41 -50 51 0
37 41 -51 0
5 -37 -50 51 0
37 41 -108 0
2 81 -121 0
61 -115 -119 0
-8 22 26 -28 34 37 38 39 40 41 0
-6 9 -41 -50 52 0
38 41 -52 0
9 -38 -50 52 0
38 41 -109 0
6 83 -123 0
-68 -77 115 -116 -119 0
5 -37 -70 72 108 0
-8 41 -53 0
-8 -20 -24 -28 34 37 38 39 40 41 0
8 -10 -84 -124 0
-10 13 -41 -70 74 110 0
-8 -41 -84 -124 0
-18 21 -41 -50 64 0
10 85 -125 0
8 -10 13 70 -74 110 0
9 -38 -70 73 109 0
-14 17 -41 -70 75 111 0
39 41 -54 0
17 -39 -70 75 111 0
-22 23 25 -41 -67 0
-19 -35 39 41 42 43 44 45 46 47 50 0
-22 23 25 -41 62 63 64 68 0
14 87 -127 0
-14 15 -87 -127 0
61 63 66 68 76 -119 0
-35 39 40 41 42 43 44 45 46 47 50 0
-39 -86 -126 0
14 -35 40 41 42 43 44 45 46 47 50 0
40 41 -55 0
-18 19 -41 -50 0
19 -40 -50 0
-23 -35 50 61 62 63 64 65 66 67 0
-18 19 21 -41 55 0
14 18 -35 42 43 44 45 46 47 50 0
-23 -36 50 59 61 62 63 64 65 66 67 0
19 -41 70 -112 0
14 40 41 42 43 44 45 46 47 49 50 0
-34 -41 -50 -59 -67 0
-22 23 -41 45 0
-20 41 -45 0
19 21 -40 55 0
-20 41 -56 0
-8 -20 -24 30 34 37 38 39 40 41 0
-8 41 -110 0
-23 -45 0
8 -10 13 -50 53 0
21 -40 -50 55 0
-26 27 -41 46 0
-24 41 -46 0
-15 -19 34 42 43 44 45 46 47 50 0
-24 41 -57 0
-8 -20 26 -28 34 37 38 39 40 41 0
-15 -19 42 43 44 45 46 47 48 49 50 0
-27 -46 0
-15 18 -35 42 43 44 45 46 47 50 0
-15 40 41 42 43 44 45 46 47 49 50 0
-30 31 -41 47 0
-28 41 -47 0
17 -39 -50 54 0
-28 41 -58 0
-8 -20 26 30 34 37 38 39 40 41 0
39 41 86 -126 0
-31 -47 0
15 17 -39 54 0
10 -20 26 -28 -32 37 38 39 40 41 0
10 22 -24 -28 34 37 38 39 40 41 0
61 62 77 -119 0
41 -48 0
-32 -49 0
-41 -49 0
-8 22 -24 -28 -32 37 38 39 40 41 0
-34 35 -48 -50 0
45 46 47 48 49 50 51 52 53 54 55 59 0
34 -92 -132 0
-34 35 36 -48 -59 0
-19 50 -55 0
-34 35 -48 92 -132 0
-42 -50 0
-43 -50 0
-44 -50 0
-18 19 -41 88 -128 0
-45 -50 0
-46 -50 0
-47 -50 0
-34 36 -48 -50 -59 0
35 36 -49 -59 0
-2 5 -41 70 -72 108 0
10 22 -24 30 34 37 38 39 40 41 0
36 -49 -50 -59 0
-37 -80 -120 0
10 22 26 30 -32 37 38 39 40 41 0
35 -49 92 -132 0
10 22 26 -28 34 37 38 39 40 41 0
2 -108 0
10 22 26 30 34 37 38 39 40 41 0
-41 -80 -120 0
37 41 -42 0
42 50 -51 0
-5 -51 0
-2 3 -41 42 0
-6 9 -41 70 -73 109 0
-38 -82 -122 0
6 -109 0
-41 -82 -122 0
38 41 -43 0
43 50 -52 0
-9 -52 0
-6 7 -41 43 0
13 -44 53 0
10 -110 0
-22 -41 -50 -59 62 63 64 68 0
-10 13 -41 70 -74 110 0
-8 41 84 -124 0
-22 25 -41 -50 -67 0
44 50 -53 0
-13 -53 0
39 40 41 42 43 44 45 46 47 49 50 0
18 39 41 42 43 44 45 46 47 49 50 0
14 -111 0
-25 -35 50 59 61 62 63 64 65 66 67 0
-14 17 -41 70 -75 111 0
-25 34 59 61 62 63 64 65 66 67 0
-17 -54 0
-14 17 -41 -50 54 0
14 -19 42 43 44 45 46 47 48 49 50 0
-18 21 -41 -50 55 0
18 -112 0
14 18 34 42 43 44 45 46 47 50 0
-18 -19 21 -41 70 112 0
-18 19 21 -41 -70 112 0
-21 -55 0
45 47 48 49 50 51 52 53 54 55 57 59 0
-50 -56 -59 0
-35 46 50 51 52 53 54 55 56 58 59 0
-45 -56 -59 0
34 45 50 51 52 53 54 55 57 58 59 0
-36 45 47 50 51 52 53 54 55 57 59 0
-25 -56 0
-19 21 -40 70 112 0
32 -34 35 -67 -113 -119 0
-8 -20 -24 30 -32 37 38 39 40 41 0
-35 60 67 71 -77 -78 -79 115 116 117 118 -119 0
34 45 47 50 51 52 53 54 55 57 59 0
34 51 52 53 54 55 56 57 58 59 0
-50 -57 -59 0
-36 46 50 51 52 53 54 55 56 58 59 0
-46 -57 -59 0
35 -49 -50 0
34 46 50 51 52 53 54 55 56 58 59 0
-29 -57 0
24 -26 29 57 0
-8 -20 26 -28 -32 37 38 39 40 41 0
-35 50 51 52 53 54 55 56 57 58 59 0
61 -62 76 -119 0
-36 51 52 53 54 55 56 57 58 59 0
46 47 48 49 50 51 52 53 54 55 56 59 0
-35 45 47 50 51 52 53 54 55 57 59 0
-50 -58 -59 0
45 48 49 50 51 52 53 54 55 57 58 59 0
-36 45 46 50 51 52 53 54 55 58 59 0
-47 -58 -59 0
34 45 46 47 50 51 52 53 54 55 59 0
-35 46 47 50 51 52 53 54 55 56 59 0
34 45 46 50 51 52 53 54 55 58 59 0
-35 47 50 51 52 53 54 55 56 57 59 0
-33 -58 0
28 -30 33 58 0
-8 -20 26 30 -32 37 38 39 40 41 0
-36 45 46 47 50 51 52 53 54 55 59 0
34 46 47 50 51 52 53 54 55 56 59 0
-36 47 50 51 52 53 54 55 56 57 59 0
46 48 49 50 51 52 53 54 55 56 58 59 0
-35 -92 -132 0
34 56 57 58 108 109 110 111 112 113 0
-47 48 49 56 57 70 108 109 110 111 112 113 0
63 -65 -77 78 115 -119 0
34 47 56 57 -70 108 109 110 111 112 113 0
48 49 56 57 58 108 109 110 111 112 113 0
34 46 56 58 -70 108 109 110 111 112 113 0
-51 -59 0
-52 -59 0
-53 -59 0
-54 -59 0
-55 -59 0
45 46 48 49 50 51 52 53 54 55 58 59 0
-36 45 50 51 52 53 54 55 57 58 59 0
-35 45 50 51 52 53 54 55 57 58 59 0
19 21 -40 -70 112 0
34 -46 -47 56 70 108 109 110 111 112 113 0
1 -2 3 5 114 0
-1 41 -60 0
1 -2 -50 -59 60 0
-3 50 -60 0
-2 5 -41 -71 114 0
-2 3 5 -41 114 0
-5 59 -60 0
-2 3 -41 -59 60 0
2 -60 0
-1 41 -114 0
1 -2 5 -50 60 0
-2 -41 -71 -113 114 0
-2 3 5 -41 60 0
4 -6 7 9 115 0
-4 41 -61 0
4 -6 -50 -59 61 0
-7 50 -61 0
-6 9 -41 -71 115 0
-6 7 9 -41 115 0
-9 59 -61 0
-6 7 -41 -59 61 0
-4 41 -115 0
4 -6 9 -50 61 0
-6 -41 -71 -113 115 0
6 -61 0
-6 7 9 -41 61 0
8 -10 11 -59 62 0
-8 41 -62 0
-10 13 -41 -50 62 0
8 -10 -50 -59 62 0
-11 50 -62 0
-10 -41 -50 -59 62 0
-10 11 -41 -59 62 0
-13 59 -62 0
-6 -41 -50 -59 61 0
8 -10 11 13 62 0
8 -10 13 -50 62 0
-10 11 13 -41 62 0
10 -62 0
-6 9 -41 -50 61 0
12 -99 -139 0
-12 41 -63 0
12 -14 -50 -59 63 0
-15 50 -63 0
-14 15 -41 -59 63 0
-41 -99 -139 0
-17 59 -63 0
-14 -41 -50 -59 63 0
-12 41 99 -139 0
12 -14 17 -50 63 0
14 -63 0
-14 17 -41 -50 63 0
16 -18 19 21 116 0
-16 41 -64 0
16 -18 -50 -59 64 0
-19 50 -64 0
-18 21 -41 -71 116 0
-18 19 21 -41 116 0
-21 59 -64 0
-18 19 -41 -59 64 0
-16 41 -116 0
16 -18 21 -50 64 0
-18 -41 -71 -113 116 0
18 -64 0
-18 19 21 -41 64 0
20 -22 23 25 117 0
-20 41 -117 0
20 -22 23 -59 62 63 64 68 0
-23 50 -68 0
-22 -41 -71 -113 117 0
20 -22 25 -50 62 63 64 68 0
-25 59 -68 0
-22 23 25 -41 117 0
22 -36 59 61 62 63 64 65 66 67 0
20 -22 -50 -59 -67 0
20 -22 -50 -59 62 63 64 68 0
22 -68 0
20 -22 -71 -113 117 0
24 -103 -143 0
-24 41 -65 0
24 -26 -50 -59 65 0
-27 50 -65 0
-26 27 -41 -59 65 0
-41 -103 -143 0
-29 59 -65 0
-26 -41 -50 -59 65 0
-24 41 103 -143 0
24 -26 29 -50 65 0
26 -65 0
-26 29 -41 -50 65 0
28 -30 31 33 118 0
-28 41 -66 0
28 -30 -50 -59 66 0
-31 50 -66 0
-30 33 -41 -71 118 0
-30 31 33 -41 118 0
-33 59 -66 0
-30 31 -41 -59 66 0
-28 41 -118 0
28 -30 33 -50 66 0
-30 -41 -71 -113 118 0
30 -66 0
-30 31 33 -41 66 0
-34 -41 -67 -71 -113 -119 0
-20 -35 41 50 61 62 63 64 65 66 67 0
-20 -36 41 59 61 62 63 64 65 66 67 0
-34 35 -41 -60 -113 114 0
-41 -60 114 -119 0
-20 34 41 61 62 63 64 65 66 67 0
32 -34 -67 -71 -113 -119 0
-61 -67 0
-62 -67 0
-63 -67 0
-64 -67 0
22 34 61 62 63 64 65 66 67 0
-65 -67 0
-66 -67 0
32 -34 36 -67 -71 -119 0
-60 114 -118 -119 0
60 67 -114 -119 0
61 62 63 64 78 -119 0
-62 -77 115 -119 0
-62 -68 0
-63 -68 0
22 -32 41 61 62 63 64 65 66 67 0
-64 -68 0
22 -35 50 61 62 63 64 65 66 67 0
61 62 -64 -78 116 -119 0
61 62 -63 -78 116 -119 0
62 65 -66 -76 -78 115 117 -119 0
61 -63 -77 -78 116 -119 0
62 -76 77 115 -119 0
61 -62 -77 -119 0
1 -2 37 0
4 -6 38 0
12 -14 39 0
16 -18 40 0
-8 22 26 -28 -32 37 38 39 40 41 0
-8 22 -24 30 -32 37 38 39 40 41 0
-8 22 -24 30 34 37 38 39 40 41 0
-8 22 -24 -28 34 37 38 39 40 41 0
70 72 -108 0
10 -41 -84 -124 0
34 -45 -47 57 70 108 109 110 111 112 113 0
34 -45 57 58 70 108 109 110 111 112 113 0
2 -51 0
34 -45 -46 -47 70 108 109 110 111 112 113 0
34 46 47 56 -70 108 109 110 111 112 113 0
34 -45 -46 58 70 108 109 110 111 112 113 0
34 45 47 57 -70 108 109 110 111 112 113 0
10 -20 -24 -28 34 37 38 39 40 41 0
5 -37 70 -72 108 0
-70 -72 -108 0
-5 -108 0
34 45 57 58 -70 108 109 110 111 112 113 0
70 73 -109 0
37 41 80 -120 0
-36 45 46 47 -70 108 109 110 111 112 113 0
47 48 49 50 51 52 53 54 55 56 57 59 0
6 -52 0
-36 47 56 57 -70 108 109 110 111 112 113 0
34 45 46 58 -70 108 109 110 111 112 113 0
-36 56 57 58 108 109 110 111 112 113 0
-36 -46 -47 56 70 108 109 110 111 112 113 0
10 -20 -24 30 34 37 38 39 40 41 0
10 41 84 -124 0
9 -38 70 -73 109 0
-70 -73 -109 0
-9 -109 0
-36 -46 56 58 70 108 109 110 111 112 113 0
70 74 -110 0
38 41 82 -122 0
-36 -45 57 58 70 108 109 110 111 112 113 0
-36 46 47 56 -70 108 109 110 111 112 113 0
10 -53 0
-36 -45 -46 58 70 108 109 110 111 112 113 0
-36 46 56 58 -70 108 109 110 111 112 113 0
-36 -45 -47 57 70 108 109 110 111 112 113 0
-36 45 57 58 -70 108 109 110 111 112 113 0
10 -20 26 -28 34 37 38 39 40 41 0
-2 -41 -50 -59 60 0
10 -20 -24 -28 -32 37 38 39 40 41 0
-18 -41 -50 -59 64 0
-2 5 -41 -50 60 0
8 -10 13 -70 74 110 0
-22 25 -41 -50 62 63 64 68 0
-22 -41 -50 -59 -67 0
-22 23 -41 -59 -67 0
-22 23 -41 -59 62 63 64 68 0
-70 -74 -110 0
-13 -110 0
-36 -45 -46 -47 70 108 109 110 111 112 113 0
70 75 -111 0
45 46 47 48 49 -70 108 109 110 111 112 113 0
-36 45 46 58 -70 108 109 110 111 112 113 0
14 -54 0
-36 45 47 57 -70 108 109 110 111 112 113 0
10 22 26 -28 -32 37 38 39 40 41 0
-25 -32 41 59 61 62 63 64 65 66 67 0
20 -22 25 -50 -67 0
10 -20 -24 30 -32 37 38 39 40 41 0
-22 25 -41 -71 117 0
17 -39 70 -75 111 0
-23 -32 41 50 61 62 63 64 65 66 67 0
20 -22 23 -59 -67 0
-25 -36 59 61 62 63 64 65 66 67 0
-70 -75 -111 0
-17 -111 0
-15 18 34 42 43 44 45 46 47 50 0
-30 33 -41 -50 66 0
-30 -41 -50 -59 66 0
-15 50 -54 0
-23 34 50 61 62 63 64 65 66 67 0
19 -40 70 -112 0
-34 35 -41 -59 -67 0
-34 36 -41 -50 -67 0
-19 -88 -128 0
-15 87 -127 0
14 18 42 43 44 45 46 47 48 49 50 0
18 -55 0
40 41 -112 0
-21 -112 0
19 -40 88 -128 0
20 -22 25 56 0
40 41 -88 -128 0
22 -45 0
-45 57 58 69 70 108 109 110 111 112 113 0
45 -56 70 -113 0
-45 -47 57 69 70 108 109 110 111 112 113 0
-45 -56 -70 -113 0
45 48 49 57 58 -70 108 109 110 111 112 113 0
45 47 48 49 57 -70 108 109 110 111 112 113 0
-63 -77 -78 115 116 -119 0
-34 36 -41 -67 -71 114 -119 0
22 -56 0
56 57 58 69 108 109 110 111 112 113 0
-45 -46 -47 69 70 108 109 110 111 112 113 0
-15 18 42 43 44 45 46 47 48 49 50 0
-64 -77 -78 115 116 -119 0
-15 -35 40 41 42 43 44 45 46 47 50 0
15 -39 -50 0
26 -46 0
-46 -47 56 69 70 108 109 110 111 112 113 0
46 -57 70 -113 0
34 47 50 51 52 53 54 55 56 57 59 0
46 56 58 69 -70 108 109 110 111 112 113 0
-46 -57 -70 -113 0
45 47 57 69 -70 108 109 110 111 112 113 0
-45 -47 48 49 57 70 108 109 110 111 112 113 0
-45 -46 48 49 58 70 108 109 110 111 112 113 0
45 46 58 69 -70 108 109 110 111 112 113 0
-36 46 47 50 51 52 53 54 55 56 59 0
61 62 63 64 -116 -119 0
26 -57 0
-47 56 57 69 70 108 109 110 111 112 113 0
34 -47 56 57 70 108 109 110 111 112 113 0
45 46 48 49 58 -70 108 109 110 111 112 113 0
10 -20 26 30 -32 37 38 39 40 41 0
10 -20 26 30 34 37 38 39 40 41 0
61 63 66 68 -77 78 -119 0
10 22 -24 -28 -32 37 38 39 40 41 0
61 62 65 68 -78 79 116 -119 0
10 22 -24 30 -32 37 38 39 40 41 0
-61 -76 -78 115 117 -119 0
30 -47 0
-46 56 58 69 70 108 109 110 111 112 113 0
47 -58 70 -113 0
-45 48 49 57 58 70 108 109 110 111 112 113 0
-45 -46 58 69 70 108 109 110 111 112 113 0
-47 -58 -70 -113 0
47 48 49 56 57 -70 108 109 110 111 112 113 0
46 47 56 69 -70 108 109 110 111 112 113 0
48 49 51 52 53 54 55 56 57 58 59 0
30 -58 0
47 56 57 69 -70 108 109 110 111 112 113 0
45 46 47 69 -70 108 109 110 111 112 113 0
34 -49 0
32 -34 -48 0
62 -63 -76 -78 115 -116 -119 0
63 64 -65 -77 115 -116 -119 0
-36 -47 56 57 70 108 109 110 111 112 113 0
34 -46 56 58 70 108 109 110 111 112 113 0
46 47 48 49 56 -70 108 109 110 111 112 113 0
34 45 46 47 -70 108 109 110 111 112 113 0
-108 -113 0
-109 -113 0
-110 -113 0
-111 -113 0
-112 -113 0
-46 48 49 56 58 70 108 109 110 111 112 113 0
-46 -47 48 49 56 70 108 109 110 111 112 113 0
46 48 49 56 58 -70 108 109 110 111 112 113 0
45 57 58 69 -70 108 109 110 111 112 113 0
-45 -46 -47 48 49 70 108 109 110 111 112 113 0
-2 3 -41 -113 114 0
1 -2 3 5 60 0
-3 71 -114 0
1 -2 3 -113 114 0
-5 113 -114 0
2 -114 0
1 -2 -71 -113 114 0
1 -2 5 -71 114 0
1 -2 3 -59 60 0
-67 79 114 -119 0
-6 7 -41 -113 115 0
4 -6 7 9 61 0
-7 71 -115 0
4 -6 7 -113 115 0
-9 113 -115 0
4 -6 -71 -113 115 0
4 -6 9 -71 115 0
4 -6 7 -59 61 0
6 -115 0
-67 114 -117 -119 0
-68 -76 -78 115 117 -119 0
-18 19 -41 -113 116 0
16 -18 19 21 64 0
-19 71 -116 0
16 -18 19 -113 116 0
-21 113 -116 0
16 -18 -71 -113 116 0
16 -18 21 -71 116 0
16 -18 19 -59 64 0
18 -116 0
-32 41 60 67 -77 -78 -79 115 116 117 118 -119 0
-22 23 -41 -113 117 0
20 -22 23 25 -67 0
-23 71 -117 0
32 -34 -50 -59 -67 0
20 -22 23 -113 117 0
-25 113 -117 0
32 -34 36 -50 -67 0
-20 41 -68 0
20 -22 25 -71 117 0
20 -22 23 25 62 63 64 68 0
22 -117 0
32 -34 35 -59 -67 0
-30 31 -41 -113 118 0
28 -30 31 33 66 0
-31 71 -118 0
28 -30 31 -113 118 0
-33 113 -118 0
-34 35 -41 -67 -113 114 -119 0
28 -30 -71 -113 118 0
28 -30 33 -71 118 0
28 -30 31 -59 66 0
30 -118 0
-34 35 36 -41 -67 0
-67 114 -118 -119 0
32 -34 35 36 -60 114 -119 0
34 60 67 -77 -78 -79 115 116 117 118 -119 0
32 -34 36 -60 -71 114 -119 0
32 -34 35 -60 -113 114 -119 0
-20 -32 41 61 62 63 64 65 66 67 0
32 -34 35 36 -67 0
-60 79 114 -119 0
-60 114 -115 -119 0
-60 114 -116 -119 0
-60 77 114 -119 0
-36 60 67 -77 -78 -79 113 115 116 117 118 -119 0
-68 -76 -78 115 -116 -119 0
62 65 -66 -76 -78 115 -116 -119 0
61 68 -77 -78 116 -117 -119 0
62 -63 -76 -78 115 117 -119 0
-61 -76 -78 115 -116 -119 0
-68 -77 -79 115 117 -119 0
61 63 -65 68 -77 78 -119 0
-61 -76 77 115 -119 0
-68 -77 78 115 -119 0
63 64 -65 -77 -79 115 117 -119 0
-15 -19 -35 42 43 44 45 46 47 50 0
-35 45 46 47 50 51 52 53 54 55 59 0
-35 45 46 50 51 52 53 54 55 58 59 0
13 -97 -137 0
-14 15 17 -41 63 0
15 -100 -140 0
17 -101 -141 0
-26 27 29 -41 65 0
27 -104 -144 0
-26 29 -105 -106 107 -118 119 120 121 122 123 124 125 126 127 128 129 130 131 132 133 134 135 136 137 138 139 140 141 142 143 144 0
-26 -29 105 -106 -107 113 118 119 120 121 122 123 124 125 126 127 128 129 130 131 132 133 134 135 136 137 138 139 140 141 142 143 144 0
26 -105 106 -107 -113 118 119 120 121 122 123 124 125 126 127 128 129 130 131 132 133 134 135 136 137 138 139 140 141 142 143 144 0
50 -71 -119 0
-50 71 -119 0
59 -113 -119 0
-59 113 -119 0
-60 114 -117 -119 0
-60 78 114 -119 0
-61 -77 -78 115 116 -119 0
-61 -77 78 115 -119 0
-61 -77 115 -116 -119 0
61 63 -65 68 76 -119 0
-2 5 -41 -70 72 108 0
5 -41 -42 51 0
-8 22 26 30 -32 37 38 39 40 41 0
-8 22 26 30 34 37 38 39 40 41 0
2 -42 0
-2 3 -81 -121 0
-3 81 -121 0
-3 -42 0
-6 9 -41 -70 73 109 0
9 -41 -43 52 0
5 -37 -42 51 0
3 -37 42 0
6 -43 0
-6 7 -83 -123 0
-7 83 -123 0
-7 -43 0
-10 11 -41 44 0
-8 41 -44 0
9 -38 -43 52 0
7 -38 43 0
10 -44 0
-10 11 -85 -125 0
-11 85 -125 0
-11 -44 0
-14 15 -41 -50 0
-14 15 17 -41 54 0
-19 39 41 42 43 44 45 46 47 49 50 0
18 -35 39 41 42 43 44 45 46 47 50 0
39 41 -111 0
14 -19 -35 42 43 44 45 46 47 50 0
14 -19 34 42 43 44 45 46 47 50 0
-8 -20 -24 -28 -32 37 38 39 40 41 0
-41 -86 -126 0
18 -88 -128 0
45 -89 -129 0
-45 89 -129 0
46 -90 -130 0
-46 90 -130 0
47 -91 -131 0
-47 91 -131 0
-19 -70 -112 0
-34 36 -48 -69 -113 0
36 -49 -69 -113 0
48 49 -92 -132 0
41 -93 -133 0
-41 93 -133 0
-8 -94 -134 0
8 94 -134 0
71 -95 -135 0
-71 95 -135 0
-11 -96 -136 0
11 96 -136 0
-97 -113 -137 0
-13 97 113 -137 0
-10 -98 -138 0
10 98 -138 0
12 -14 15 -59 63 0
12 -14 15 17 63 0
-71 -100 -140 0
-15 71 100 -140 0
-101 -113 -141 0
-17 101 113 -141 0
-14 -102 -142 0
14 102 -142 0
24 -26 27 -59 65 0
24 -26 27 29 65 0
-71 -104 -144 0
-27 71 104 -144 0
-26 29 -105 -106 -107 118 119 120 121 122 123 124 125 126 127 128 129 130 131 132 133 134 135 136 137 138 139 140 141 142 143 144 0
26 -29 105 106 -107 113 118 119 120 121 122 123 124 125 126 127 128 129 130 131 132 133 134 135 136 137 138 139 140 141 142 143 144 0
26 29 -105 106 -107 118 119 120 121 122 123 124 125 126 127 128 129 130 131 132 133 134 135 136 137 138 139 140 141 142 143 144 0
26 -29 105 106 107 113 -118 119 120 121 122 123 124 125 126 127 128 129 130 131 132 133 134 135 136 137 138 139 140 141 142 143 144 0
-26 -105 -106 -107 -113 118 119 120 121 122 123 124 125 126 127 128 129 130 131 132 133 134 135 136 137 138 139 140 141 142 143 144 0
-61 -77 -79 115 117 -119 0
-26 -105 -106 107 -113 -118 119 120 121 122 123 124 125 126 127 128 129 130 131 132 133 134 135 136 137 138 139 140 141 142 143 144 0
26 29 -105 106 107 -118 119 120 121 122 123 124 125 126 127 128 129 130 131 132 133 134 135 136 137 138 139 140 141 142 143 144 0
-26 -29 105 -106 107 113 -118 119 120 121 122 123 124 125 126 127 128 129 130 131 132 133 134 135 136 137 138 139 140 141 142 143 144 0
26 -105 106 107 -113 -118 119 120 121 122 123 124 125 126 127 128 129 130 131 132 133 134 135 136 137 138 139 140 141 142 143 144 0
